% seed = 0

mint = 46;
% maxt = 234;

nActs = 92;
dur = [0,1,2,3,2,2,3,2,4,2,3,1,3,1,3,3,4,1,4,3,1,1,2,2,2,4,4,3,2,3,2,5,3,1,2,1,4,2,3,1,1,1,3,3,3,2,4,5,3,4,3,4,2,1,2,3,5,3,2,1,4,3,2,2,2,1,4,3,3,2,2,1,2,2,1,6,4,3,3,2,2,2,4,4,4,2,2,2,1,5,4,0];

nSkills = 15;
sreq = [| 0,0,0,0,0,0,0,0,0,0,0,0,0,0,0,
	| 0,2,1,0,1,0,0,0,0,0,0,0,0,1,1,
	| 0,0,0,0,0,1,1,0,0,0,0,0,0,1,0,
	| 1,0,2,0,0,0,0,1,2,0,0,1,0,0,1,
	| 0,0,0,0,0,1,0,0,0,1,0,0,0,0,0,
	| 0,1,1,0,2,0,1,1,1,0,0,1,1,0,0,
	| 0,0,1,0,0,0,0,0,0,0,0,0,0,0,0,
	| 0,0,0,0,0,0,1,0,3,0,0,3,0,1,2,
	| 0,0,1,0,2,0,0,2,0,0,1,0,0,0,0,
	| 0,1,2,0,0,1,0,0,2,0,0,1,1,1,1,
	| 0,0,1,1,0,1,1,0,2,0,0,2,1,0,0,
	| 0,0,2,0,0,0,0,0,1,0,0,2,0,0,0,
	| 0,0,0,1,0,0,0,0,1,0,0,1,0,0,1,
	| 0,2,0,0,0,0,0,0,2,0,1,2,0,1,0,
	| 0,0,1,0,2,0,0,0,0,0,0,0,0,1,0,
	| 0,2,1,0,1,1,0,0,1,0,0,3,0,1,0,
	| 0,0,0,0,2,1,0,0,3,0,1,0,0,1,1,
	| 0,0,2,0,1,0,0,0,1,0,0,0,0,0,1,
	| 0,0,1,1,0,2,0,0,2,0,0,0,0,1,1,
	| 0,0,0,0,0,0,0,0,0,0,0,1,0,0,0,
	| 0,1,2,1,1,0,0,0,1,0,0,1,0,0,2,
	| 0,1,0,0,0,1,0,0,0,0,1,4,0,0,0,
	| 0,2,2,0,0,0,0,0,0,0,0,3,0,0,2,
	| 0,0,0,1,0,0,0,0,0,0,0,0,0,1,0,
	| 1,0,0,0,0,0,0,0,0,0,0,1,0,0,1,
	| 0,0,0,1,2,0,0,2,0,0,0,0,0,2,0,
	| 0,0,1,0,0,0,0,0,1,0,0,1,0,1,0,
	| 0,2,2,0,0,2,0,1,0,1,0,1,0,0,1,
	| 0,0,1,0,0,0,0,0,1,1,0,0,0,0,0,
	| 0,0,1,0,1,0,1,0,2,0,0,1,0,2,1,
	| 0,0,0,0,0,0,0,0,1,0,0,0,0,0,0,
	| 0,1,1,0,0,1,0,0,3,1,0,1,0,0,1,
	| 0,0,2,0,1,1,0,1,1,0,0,1,0,0,1,
	| 0,1,1,0,0,1,0,1,1,0,2,0,1,0,0,
	| 0,0,0,0,0,0,0,0,0,1,0,0,0,0,0,
	| 0,0,0,1,0,0,0,0,0,0,0,0,0,0,0,
	| 0,0,0,0,0,1,0,0,0,0,0,0,0,0,0,
	| 0,1,1,0,0,0,0,0,0,0,0,0,0,0,0,
	| 0,0,0,1,0,1,0,1,0,0,1,2,1,1,1,
	| 1,0,1,0,0,0,0,0,0,0,0,0,0,0,0,
	| 0,0,0,1,0,0,0,0,1,1,0,0,0,1,0,
	| 0,0,0,0,0,1,0,0,1,1,0,1,0,1,2,
	| 0,0,0,0,1,0,0,0,1,0,0,0,0,0,2,
	| 0,0,0,0,1,0,0,0,1,1,1,0,0,0,1,
	| 0,0,0,0,2,0,0,0,1,0,1,0,0,1,1,
	| 0,0,0,0,0,0,0,0,0,0,0,1,0,1,1,
	| 0,0,0,0,0,0,0,0,1,0,0,0,0,0,1,
	| 0,0,0,0,0,0,0,0,1,0,0,1,0,0,0,
	| 0,0,0,0,0,1,0,1,1,0,0,0,0,1,0,
	| 0,0,0,0,0,1,0,0,0,0,0,0,0,0,0,
	| 0,1,0,0,0,0,0,0,0,0,0,0,0,0,0,
	| 0,0,1,0,1,0,0,0,4,0,0,1,1,1,1,
	| 0,0,0,1,0,2,0,1,0,0,1,0,0,1,1,
	| 0,0,1,0,1,0,0,0,0,0,0,0,0,0,0,
	| 0,0,1,1,1,0,0,0,2,0,0,2,0,0,0,
	| 0,1,0,0,0,0,0,0,0,0,0,0,0,0,0,
	| 0,1,1,0,3,0,0,0,1,0,0,2,0,1,1,
	| 0,0,2,1,0,1,1,0,0,1,0,1,0,1,1,
	| 0,0,1,0,0,0,0,0,0,0,0,1,0,1,2,
	| 0,1,0,0,0,0,1,0,0,0,1,0,0,0,0,
	| 0,0,1,0,0,1,0,0,1,0,0,0,0,1,0,
	| 1,0,0,0,0,0,0,0,1,0,0,2,1,1,0,
	| 0,0,0,1,0,0,1,0,0,0,0,1,1,0,1,
	| 0,1,0,0,0,0,0,0,0,0,0,0,0,0,0,
	| 0,1,2,0,0,0,0,0,1,0,0,4,0,1,0,
	| 0,0,0,0,0,1,1,0,0,0,0,1,0,1,0,
	| 1,0,2,0,0,1,1,0,1,0,0,2,1,0,1,
	| 0,2,4,0,0,0,0,0,1,0,0,0,0,0,1,
	| 0,1,0,0,0,0,0,0,2,0,1,1,0,0,0,
	| 0,0,0,0,0,0,0,0,2,0,0,0,0,0,0,
	| 0,0,0,0,1,0,0,1,0,0,0,0,0,0,0,
	| 0,1,2,0,0,0,0,0,2,0,0,0,0,2,1,
	| 0,1,0,0,0,1,0,1,0,0,0,1,0,0,2,
	| 0,2,1,1,0,0,0,0,2,0,0,0,0,3,0,
	| 0,0,0,0,1,0,1,0,0,0,0,1,0,0,0,
	| 0,0,1,0,0,1,1,1,1,0,0,3,0,0,1,
	| 0,0,1,0,1,0,0,0,1,0,0,3,0,1,2,
	| 0,0,1,1,1,0,0,0,1,1,0,2,0,0,1,
	| 0,0,2,1,0,0,1,0,0,0,0,1,0,1,1,
	| 0,1,0,0,0,0,0,0,0,0,0,0,0,0,0,
	| 0,2,1,0,1,0,0,1,2,1,0,0,0,2,0,
	| 0,1,0,0,1,0,0,0,0,1,0,0,0,0,0,
	| 0,0,1,0,0,2,0,0,0,0,0,0,0,0,1,
	| 0,0,1,1,1,0,0,1,0,0,1,1,0,0,0,
	| 0,0,1,1,0,1,0,0,0,0,0,0,0,0,0,
	| 0,0,1,0,0,1,0,0,3,2,0,1,0,0,1,
	| 0,0,0,1,0,0,0,0,1,0,0,0,0,1,0,
	| 0,0,0,0,1,0,0,0,0,0,0,1,0,1,0,
	| 0,1,0,0,0,0,0,0,1,0,0,0,0,0,0,
	| 0,1,1,0,0,0,0,0,0,0,0,0,0,0,0,
	| 0,0,0,0,0,0,1,0,0,1,0,0,0,0,0,
	| 0,0,0,0,0,0,0,0,0,0,0,0,0,0,0, |];

% SumOfsreq = 479;

nResources = 30;
mastery = [| false,true,true,false,false,false,false,false,false,false,false,false,false,false,false,
	| false,false,false,false,false,false,true,true,true,false,false,false,false,false,false,
	| false,false,false,false,false,false,false,false,false,true,true,true,false,false,false,
	| false,false,true,false,true,true,false,false,false,false,false,false,false,false,false,
	| false,false,false,false,false,false,true,true,true,false,false,false,false,false,false,
	| false,true,true,false,false,false,false,false,false,false,false,false,false,false,false,
	| false,false,false,true,true,true,false,false,false,true,true,true,false,false,false,
	| false,false,false,false,true,true,false,false,false,false,false,false,true,true,true,
	| false,true,true,false,false,false,false,false,false,false,false,false,false,false,false,
	| false,false,true,false,false,false,false,false,false,false,false,false,false,false,true,
	| false,false,false,false,false,false,false,false,false,false,false,true,false,false,false,
	| false,false,false,false,false,false,false,false,false,false,false,false,false,true,true,
	| false,false,false,false,false,false,false,false,false,false,false,false,false,false,true,
	| false,false,false,false,false,false,false,false,false,false,false,false,false,true,true,
	| false,false,false,false,false,false,false,false,true,false,false,false,false,false,false,
	| false,false,false,false,false,false,false,false,false,false,false,false,false,false,true,
	| false,false,false,false,false,false,false,false,false,false,false,true,false,false,false,
	| false,false,false,false,false,false,true,true,true,false,false,false,false,false,false,
	| false,false,false,false,false,false,false,false,false,true,true,true,true,true,true,
	| false,false,false,false,false,false,false,false,false,false,false,false,false,false,true,
	| false,false,false,false,false,false,false,false,false,true,true,true,false,false,false,
	| false,false,false,true,true,true,false,false,false,false,false,false,false,false,false,
	| false,false,false,false,false,false,false,false,false,false,false,true,false,false,false,
	| true,true,true,false,false,false,false,false,false,false,false,false,false,false,false,
	| false,false,false,false,false,false,false,false,true,false,false,false,false,false,false,
	| false,false,false,true,true,true,false,false,false,false,false,false,false,false,false,
	| false,false,false,true,true,true,false,false,false,false,false,false,false,false,false,
	| false,false,false,false,false,false,false,false,true,false,false,false,false,false,false,
	| false,false,false,false,false,false,true,true,true,false,false,false,false,true,true,
	| false,false,false,false,false,false,false,false,false,false,false,false,false,false,true, |];

nPrecs = 138;
pred = [1,1,1,2,2,2,3,3,3,4,4,4,5,6,6,7,7,8,8,8,9,9,9,10,10,11,11,11,12,12,12,13,13,14,15,15,16,17,17,17,18,18,19,19,20,21,21,22,22,23,24,24,25,26,26,27,28,28,28,29,30,30,30,31,31,32,33,34,35,36,36,37,38,39,40,40,41,41,41,42,42,43,43,44,45,45,46,47,48,49,50,50,51,51,51,52,53,54,55,56,57,58,58,58,59,60,61,62,63,64,65,66,67,68,69,70,71,72,73,74,75,76,76,77,78,79,80,81,82,83,84,85,86,87,88,89,90,91];
succ = [2,3,4,51,6,15,34,21,53,5,7,8,26,10,68,25,11,9,12,16,45,29,47,14,56,33,13,32,18,28,61,17,22,30,26,24,20,58,19,21,75,69,76,36,87,38,54,27,23,59,57,63,65,75,52,43,35,37,39,44,42,83,31,85,40,73,48,63,80,50,71,59,59,63,41,90,49,78,64,46,54,62,72,73,49,71,55,67,89,79,74,51,57,66,70,80,86,71,76,60,86,67,77,64,60,84,88,82,89,81,69,84,89,69,84,78,90,91,76,82,81,81,77,87,79,80,82,86,88,85,88,87,91,90,91,92,92,92];

nUnrels = 3139;
unpred = [2,2,2,2,2,2,2,2,2,2,2,2,2,2,2,2,2,2,2,2,2,2,2,2,2,2,2,2,2,2,2,2,2,2,2,2,2,2,2,2,2,2,2,2,2,3,3,3,3,3,3,3,3,3,3,3,3,3,3,3,3,3,3,3,3,3,3,3,3,3,3,3,3,3,3,3,3,3,3,3,3,3,3,3,3,3,3,3,3,3,3,3,3,3,3,3,3,3,3,3,3,3,3,3,3,3,3,3,3,3,3,3,3,3,3,3,3,3,4,4,4,4,4,4,4,4,4,4,4,4,4,4,4,4,4,4,5,5,5,5,5,5,5,5,5,5,5,5,5,5,5,5,5,5,5,5,5,5,5,5,5,5,5,5,5,5,5,5,5,5,5,5,5,5,5,5,5,5,5,5,5,5,5,5,5,5,5,5,5,5,5,5,5,5,5,5,5,5,5,5,5,5,5,5,5,5,5,5,5,5,5,5,5,6,6,6,6,6,6,6,6,6,6,6,6,6,6,6,6,6,6,6,6,6,6,6,6,6,6,6,6,6,6,6,6,6,6,6,6,6,6,6,6,6,6,6,6,6,6,6,6,6,6,6,6,6,7,7,7,7,7,7,7,7,7,7,7,7,7,7,7,7,7,7,7,7,7,7,7,7,7,7,7,7,7,7,7,7,7,7,7,7,7,8,8,8,8,8,8,8,8,8,8,8,8,8,8,8,8,8,8,8,8,8,8,8,8,8,8,8,8,8,8,8,8,8,8,8,8,8,8,8,8,8,8,8,8,8,8,8,9,9,9,9,9,9,9,9,9,9,9,9,9,9,9,9,9,9,9,9,9,9,9,9,9,9,9,9,9,9,9,9,9,9,9,9,9,9,9,9,9,9,9,9,9,9,9,9,9,9,9,9,9,9,9,9,9,9,9,9,9,9,10,10,10,10,10,10,10,10,10,10,10,10,10,10,10,10,10,10,10,10,10,10,10,10,10,10,10,10,10,10,10,10,10,10,10,10,10,10,10,10,10,10,10,10,10,10,10,10,10,10,10,10,11,11,11,11,11,11,11,11,11,11,11,11,11,11,11,11,11,11,11,11,11,11,11,11,11,11,11,11,11,11,11,11,11,11,11,11,11,12,12,12,12,12,12,12,12,12,12,12,12,12,12,12,12,12,12,12,12,12,12,12,12,12,12,12,12,12,12,12,12,12,12,12,12,12,12,12,12,12,12,12,12,12,12,12,12,12,12,12,12,12,12,12,12,12,12,12,12,13,13,13,13,13,13,13,13,13,13,13,13,13,13,13,13,13,13,13,13,13,13,13,13,13,13,13,13,13,13,13,13,13,13,13,13,13,13,13,13,14,14,14,14,14,14,14,14,14,14,14,14,14,14,14,14,14,14,14,14,14,14,14,14,14,14,14,14,14,14,14,14,14,14,14,14,14,14,14,14,14,14,14,14,14,14,14,14,14,14,14,14,15,15,15,15,15,15,15,15,15,15,15,15,15,15,15,15,15,15,15,15,15,15,15,15,15,15,15,15,15,15,15,15,15,15,15,15,15,15,15,15,15,15,15,15,15,15,15,15,15,15,15,15,15,15,15,15,15,15,15,15,15,15,15,16,16,16,16,16,16,16,16,16,16,16,16,16,16,16,16,16,16,16,16,16,16,16,16,16,16,16,16,16,16,16,16,16,16,16,16,16,16,16,16,16,16,16,16,16,16,16,16,16,16,16,16,16,16,16,16,16,16,16,16,16,16,16,16,16,16,16,16,16,16,16,16,17,17,17,17,17,17,17,17,17,17,17,17,17,17,17,17,17,17,17,17,17,17,17,17,17,17,17,17,17,17,17,17,17,17,17,17,17,17,17,17,17,17,17,18,18,18,18,18,18,18,18,18,18,18,18,18,18,18,18,18,18,18,18,18,18,18,18,18,18,18,18,18,18,18,18,18,18,18,18,18,18,18,18,18,18,18,18,18,18,18,18,18,18,18,18,18,18,18,18,18,18,18,18,18,18,18,18,18,18,19,19,19,19,19,19,19,19,19,19,19,19,19,19,19,19,19,19,19,19,19,19,19,19,19,19,19,19,19,19,19,19,19,19,19,19,19,19,19,19,19,19,19,19,19,19,19,19,19,19,19,20,20,20,20,20,20,20,20,20,20,20,20,20,20,20,20,20,20,20,20,20,20,20,20,20,20,20,20,20,20,20,20,20,20,20,20,20,20,20,20,20,20,20,20,20,20,20,20,20,20,20,20,20,20,20,20,20,20,20,20,20,20,20,20,20,20,20,20,20,21,21,21,21,21,21,21,21,21,21,21,21,21,21,21,21,21,21,21,21,21,21,21,21,21,21,21,21,21,21,21,21,21,21,21,21,21,21,21,21,21,21,21,21,21,21,21,21,21,21,21,21,21,21,21,21,21,21,21,21,21,22,22,22,22,22,22,22,22,22,22,22,22,22,22,22,22,22,22,22,22,22,22,22,22,22,22,22,22,22,22,22,22,22,22,22,22,22,22,22,22,22,22,22,22,22,22,22,22,22,22,22,22,22,22,22,22,22,22,23,23,23,23,23,23,23,23,23,23,23,23,23,23,23,23,23,23,23,23,23,23,23,23,23,23,23,23,23,23,23,23,23,23,23,23,23,23,23,23,23,23,23,23,23,23,23,23,23,23,23,23,23,23,23,23,23,23,23,23,23,23,23,24,24,24,24,24,24,24,24,24,24,24,24,24,24,24,24,24,24,24,24,24,24,24,24,24,24,24,24,24,24,24,24,24,24,24,24,24,24,24,24,24,24,24,24,24,24,24,24,24,24,24,24,24,24,24,24,24,24,24,24,24,24,25,25,25,25,25,25,25,25,25,25,25,25,25,25,25,25,25,25,25,25,25,25,25,25,25,25,25,25,25,25,25,25,25,25,25,25,25,25,25,25,25,25,25,25,25,25,25,25,25,25,25,25,25,25,25,25,25,25,25,25,25,26,26,26,26,26,26,26,26,26,26,26,26,26,26,26,26,26,26,26,26,26,26,26,26,26,26,26,26,26,26,26,26,26,26,26,26,26,26,26,26,26,26,26,26,26,26,26,26,26,26,26,26,26,26,26,26,26,27,27,27,27,27,27,27,27,27,27,27,27,27,27,27,27,27,27,27,27,27,27,27,27,27,27,27,27,27,27,27,27,27,27,27,27,27,27,27,27,27,27,27,27,27,27,27,27,27,27,27,27,27,27,27,27,27,27,28,28,28,28,28,28,28,28,28,28,28,28,28,28,28,28,28,28,28,28,28,28,28,28,28,28,28,28,28,28,28,28,28,28,28,28,28,28,28,28,28,28,28,28,28,28,28,28,28,28,28,29,29,29,29,29,29,29,29,29,29,29,29,29,29,29,29,29,29,29,29,29,29,29,29,29,29,29,29,29,29,29,29,29,29,29,29,29,29,29,29,29,29,29,29,29,29,29,29,29,29,29,29,29,30,30,30,30,30,30,30,30,30,30,30,30,30,30,30,30,30,30,30,30,30,30,30,30,30,30,30,30,30,30,30,30,30,30,30,30,30,31,31,31,31,31,31,31,31,31,31,31,31,31,31,31,31,31,31,31,31,31,31,31,31,31,31,31,31,31,31,31,31,31,31,31,31,31,31,31,31,31,31,31,31,31,32,32,32,32,32,32,32,32,32,32,32,32,32,32,32,32,32,32,32,32,32,32,32,32,32,32,32,32,32,32,32,32,32,32,32,32,32,32,32,32,32,32,32,32,32,32,32,32,32,32,32,33,33,33,33,33,33,33,33,33,33,33,33,33,33,33,33,33,33,33,33,33,33,33,33,33,33,33,33,33,33,33,33,33,33,33,33,33,33,33,33,33,33,33,33,33,33,33,33,33,33,33,33,33,33,33,33,34,34,34,34,34,34,34,34,34,34,34,34,34,34,34,34,34,34,34,34,34,34,34,34,34,34,34,34,34,34,34,34,34,34,34,34,34,34,34,34,34,34,34,34,34,34,34,34,34,34,34,34,34,34,34,35,35,35,35,35,35,35,35,35,35,35,35,35,35,35,35,35,35,35,35,35,35,35,35,35,35,35,35,35,35,35,35,35,35,35,35,35,35,35,35,35,35,35,35,35,35,35,35,35,35,35,35,36,36,36,36,36,36,36,36,36,36,36,36,36,36,36,36,36,36,36,36,36,36,36,36,36,36,36,36,36,36,36,36,36,36,36,36,36,36,36,37,37,37,37,37,37,37,37,37,37,37,37,37,37,37,37,37,37,37,37,37,37,37,37,37,37,37,37,37,37,37,37,37,37,37,37,37,37,37,37,37,37,37,37,37,37,37,37,37,38,38,38,38,38,38,38,38,38,38,38,38,38,38,38,38,38,38,38,38,38,38,38,38,38,38,38,38,38,38,38,38,38,38,38,38,38,38,38,38,38,38,38,38,38,38,38,38,39,39,39,39,39,39,39,39,39,39,39,39,39,39,39,39,39,39,39,39,39,39,39,39,39,39,39,39,39,39,39,39,39,39,39,39,39,39,39,39,39,39,39,39,39,39,39,39,39,39,40,40,40,40,40,40,40,40,40,40,40,40,40,40,40,40,40,40,40,40,40,40,40,40,40,40,40,40,40,40,40,40,40,40,40,40,40,40,40,41,41,41,41,41,41,41,41,41,41,41,41,41,41,41,41,41,41,41,41,41,41,41,41,41,41,41,41,41,41,41,41,41,41,41,41,41,41,41,41,42,42,42,42,42,42,42,42,42,42,42,42,42,42,42,42,42,42,42,42,42,42,42,42,42,42,42,42,42,42,42,42,42,42,42,42,42,42,43,43,43,43,43,43,43,43,43,43,43,43,43,43,43,43,43,43,43,43,43,43,43,43,43,43,43,43,43,43,43,43,43,43,43,43,43,43,43,43,43,43,43,44,44,44,44,44,44,44,44,44,44,44,44,44,44,44,44,44,44,44,44,44,44,44,44,44,44,44,44,44,44,44,44,44,44,44,44,44,44,44,45,45,45,45,45,45,45,45,45,45,45,45,45,45,45,45,45,45,45,45,45,45,45,45,45,45,45,45,45,45,45,45,45,45,45,45,45,45,46,46,46,46,46,46,46,46,46,46,46,46,46,46,46,46,46,46,46,46,46,46,46,46,46,46,46,46,46,46,46,46,46,46,46,46,46,47,47,47,47,47,47,47,47,47,47,47,47,47,47,47,47,47,47,47,47,47,47,47,47,47,47,47,47,47,47,47,47,47,47,47,47,47,47,47,47,47,47,48,48,48,48,48,48,48,48,48,48,48,48,48,48,48,48,48,48,48,48,48,48,48,48,48,48,48,48,48,48,48,48,48,48,48,48,48,48,48,48,48,48,49,49,49,49,49,49,49,49,49,49,49,49,49,49,49,49,49,49,49,49,49,49,49,49,49,49,49,49,49,49,49,49,49,49,49,49,49,50,50,50,50,50,50,50,50,50,50,50,50,50,50,50,50,50,50,50,50,50,50,50,50,50,50,50,50,51,51,51,51,51,51,51,51,51,51,51,51,51,51,51,51,51,51,51,51,51,51,51,51,51,51,51,51,51,52,52,52,52,52,52,52,52,52,52,52,52,52,52,52,52,52,52,52,52,52,52,52,52,52,52,52,52,52,52,52,52,52,52,52,53,53,53,53,53,53,53,53,53,53,53,53,53,53,53,53,53,53,53,53,53,53,53,53,53,53,53,53,53,53,53,53,53,53,53,53,54,54,54,54,54,54,54,54,54,54,54,54,54,54,54,54,54,54,54,54,54,54,54,54,54,54,54,54,54,54,54,54,54,54,54,55,55,55,55,55,55,55,55,55,55,55,55,55,55,55,55,55,55,55,55,55,55,55,55,55,55,55,55,55,56,56,56,56,56,56,56,56,56,56,56,56,56,56,56,56,56,56,56,56,56,56,56,56,56,56,56,56,56,56,56,57,57,57,57,57,57,57,57,57,57,57,57,57,57,57,57,57,57,57,57,57,57,57,57,57,57,57,57,57,57,57,57,58,58,58,58,58,58,58,58,58,58,58,58,58,58,58,58,58,58,58,58,58,58,58,58,59,59,59,59,59,59,59,59,59,59,59,59,59,59,59,59,59,59,59,59,59,59,59,59,59,59,59,59,60,60,60,60,60,60,60,60,60,60,60,60,60,60,60,60,60,60,60,60,60,60,60,60,60,60,60,60,61,61,61,61,61,61,61,61,61,61,61,61,61,61,61,61,61,61,61,61,61,61,61,61,61,61,61,61,62,62,62,62,62,62,62,62,62,62,62,62,62,62,62,62,62,62,62,62,62,62,62,62,62,62,63,63,63,63,63,63,63,63,63,63,63,63,63,63,63,63,63,63,63,63,63,63,63,63,63,63,63,64,64,64,64,64,64,64,64,64,64,64,64,64,64,64,64,64,64,64,64,64,64,64,64,65,65,65,65,65,65,65,65,65,65,65,65,65,65,65,65,65,65,65,65,65,65,66,66,66,66,66,66,66,66,66,66,66,66,66,66,66,66,66,66,66,66,66,66,67,67,67,67,67,67,67,67,67,67,67,67,67,67,67,67,67,67,67,67,67,67,67,68,68,68,68,68,68,68,68,68,68,68,68,68,68,68,68,68,68,68,69,69,69,69,69,69,69,69,69,69,69,69,69,69,69,69,69,69,69,70,70,70,70,70,70,70,70,70,70,70,70,70,70,70,71,71,71,71,71,71,71,71,71,71,71,71,71,71,71,71,71,71,71,72,72,72,72,72,72,72,72,72,72,72,72,72,72,72,72,72,72,73,73,73,73,73,73,73,73,73,73,73,74,74,74,74,74,74,74,74,74,74,74,74,74,74,75,75,75,75,75,75,75,75,75,75,75,75,75,76,76,76,76,76,76,76,76,76,77,77,77,77,77,77,77,77,77,77,77,77,78,78,78,78,78,78,78,78,79,79,79,79,79,79,79,79,80,80,80,80,80,80,80,80,81,81,81,81,81,81,81,81,82,82,82,82,82,82,82,83,83,83,83,83,84,84,84,84,84,85,85,85,85,86,86,86,86,87,87,87,88,88,89,89,90];
unsucc = [3,4,5,7,8,9,11,12,13,16,17,18,19,20,21,22,23,25,27,28,29,32,33,34,35,36,37,38,39,43,44,45,47,48,50,53,58,59,61,62,65,67,72,73,74,4,5,6,7,8,9,10,11,12,13,14,15,16,17,18,19,20,22,23,24,25,26,27,28,29,30,31,32,33,35,36,37,39,40,41,42,43,44,45,46,47,48,49,50,51,52,55,56,57,58,61,62,64,65,66,67,68,69,70,72,73,74,75,76,77,78,79,80,81,82,83,85,87,6,10,14,15,24,30,31,34,40,41,42,46,53,55,56,68,83,85,6,7,8,9,10,11,12,13,14,15,16,17,18,19,20,21,22,23,24,25,27,28,29,30,31,32,33,34,35,36,37,38,39,40,41,42,43,44,45,46,47,48,49,50,51,53,54,55,56,57,58,59,60,61,62,63,64,65,66,67,68,69,70,71,72,73,74,76,77,78,79,83,84,85,87,89,90,7,8,9,11,12,13,15,16,17,18,19,20,21,22,23,24,25,26,27,28,29,32,33,34,35,36,37,38,39,43,44,45,47,48,50,51,52,53,57,58,59,61,62,63,65,66,67,70,72,73,74,75,89,8,9,10,12,14,15,16,18,20,24,26,28,29,30,31,34,35,37,39,40,41,42,44,45,46,47,49,52,53,55,56,61,63,68,75,83,85,10,11,13,14,15,17,19,21,22,23,24,25,26,27,30,31,32,33,34,36,38,40,41,42,43,46,48,50,51,52,53,54,55,56,57,58,62,64,65,66,68,70,72,74,78,83,85,10,11,12,13,14,15,16,17,18,19,20,21,22,23,24,25,26,27,28,30,31,32,33,34,35,36,37,38,39,40,41,42,43,46,48,50,51,52,53,54,55,56,57,58,59,60,61,62,63,64,65,66,68,69,70,72,74,75,78,83,84,85,11,12,13,15,16,17,18,19,20,21,22,23,24,25,26,27,28,29,32,33,34,35,36,37,38,39,43,44,45,47,48,50,51,52,53,57,58,59,61,62,63,65,66,67,68,69,70,72,73,74,75,89,12,14,15,16,18,20,24,25,26,28,29,30,31,34,35,37,39,40,41,42,44,45,46,47,49,52,53,55,56,61,63,65,68,69,75,83,85,13,14,15,16,17,19,20,21,22,23,24,25,26,27,29,30,31,32,33,34,36,38,40,41,42,43,44,45,46,47,48,49,50,51,52,53,54,55,56,57,58,62,64,65,66,67,68,70,71,72,73,74,76,77,78,79,83,85,87,90,14,15,16,18,20,24,25,26,28,29,30,31,32,33,34,35,37,39,40,41,42,44,45,46,47,48,49,52,53,55,56,61,63,65,68,69,73,75,83,85,15,16,17,18,19,20,21,22,23,24,25,26,27,28,29,32,33,34,35,36,37,38,39,43,44,45,47,48,50,51,52,53,56,57,58,59,60,61,62,63,65,66,67,68,69,70,72,73,74,75,84,89,16,17,18,19,20,21,22,23,25,27,28,29,30,31,32,33,34,35,36,37,38,39,40,41,42,43,44,45,46,47,48,49,50,51,53,54,55,56,58,59,60,61,62,64,65,66,67,68,69,70,71,72,73,74,76,77,78,79,83,84,85,87,90,17,18,19,21,22,23,24,25,26,27,28,29,30,31,32,33,34,35,36,37,38,39,40,41,42,43,44,45,46,47,48,49,50,51,52,53,54,55,56,57,58,59,60,61,62,63,64,65,66,67,68,69,70,71,72,73,74,75,76,77,78,79,80,81,82,83,84,85,86,88,89,91,18,20,22,23,24,25,26,27,28,29,30,31,32,33,34,35,37,39,40,41,42,43,44,45,46,47,48,49,52,53,55,56,61,62,63,65,68,69,72,73,75,83,85,19,20,21,22,23,24,25,26,27,28,29,30,31,32,33,34,35,36,37,38,39,40,41,42,43,44,45,46,47,48,49,50,51,52,53,54,55,56,57,58,59,60,61,62,63,64,65,66,67,68,70,71,72,73,74,76,77,78,79,80,82,83,85,87,89,90,20,21,22,23,24,25,26,27,28,29,30,31,32,33,34,35,37,38,39,40,41,42,43,44,45,46,47,48,49,52,53,54,55,56,58,59,60,61,62,63,64,65,67,68,69,72,73,75,83,85,89,21,22,23,24,25,26,27,28,29,30,31,32,33,34,35,36,37,38,39,40,41,42,43,44,45,46,47,48,49,50,51,52,53,54,55,56,57,58,59,60,61,62,63,64,65,66,67,68,69,70,71,72,73,74,75,76,77,78,79,80,81,82,83,84,85,86,88,89,91,22,23,24,25,26,27,28,29,30,31,32,33,34,35,36,37,39,40,41,42,43,44,45,46,47,48,49,50,51,52,53,55,56,57,58,61,62,63,64,65,66,67,68,69,70,72,73,74,75,76,77,78,79,80,81,82,83,85,86,87,89,24,25,26,28,29,30,31,32,33,34,35,36,37,38,39,40,41,42,44,45,46,47,48,49,50,51,52,53,54,55,56,57,58,61,63,64,65,66,67,68,69,70,71,73,74,75,76,77,78,79,80,81,83,85,86,87,89,90,24,25,26,27,28,29,30,31,32,33,34,35,36,37,38,39,40,41,42,43,44,45,46,47,48,49,50,51,52,53,54,55,56,57,58,61,62,63,64,65,66,67,68,69,70,71,72,73,74,75,76,77,78,79,80,81,82,83,85,86,87,89,90,25,26,27,28,29,30,31,32,33,34,35,36,37,38,39,40,41,42,43,44,45,46,47,48,49,50,51,52,53,54,55,56,58,59,60,61,62,64,65,66,67,68,69,70,71,72,73,74,75,76,77,78,79,80,81,82,83,84,85,87,88,90,26,27,28,29,30,31,32,33,34,35,36,37,38,39,40,41,42,43,44,45,46,47,48,49,50,51,52,53,54,55,56,57,58,59,60,61,62,63,64,66,67,68,70,71,72,73,74,75,76,77,78,79,80,81,82,83,85,86,87,89,90,27,28,29,30,31,32,33,34,35,36,37,38,39,40,41,42,43,44,45,46,47,48,49,50,51,53,54,55,56,57,58,59,60,61,62,63,64,65,66,67,68,69,70,71,72,73,74,76,77,78,79,83,84,85,87,89,90,28,29,30,31,32,33,34,35,36,37,38,39,40,41,42,44,45,46,47,48,49,50,51,52,53,54,55,56,57,58,59,60,61,63,64,65,66,67,68,69,70,71,73,74,75,76,77,78,79,80,81,83,84,85,86,87,89,90,29,30,31,32,33,34,36,38,40,41,42,43,44,45,46,47,48,49,50,51,52,53,54,55,56,57,58,61,62,64,65,66,67,68,69,70,71,72,73,74,75,76,77,78,79,81,83,85,86,87,90,30,31,32,33,34,35,36,37,38,39,40,41,42,43,45,46,47,48,49,50,51,52,53,54,55,56,57,58,59,60,61,62,63,64,65,66,67,68,69,70,71,72,74,75,78,79,80,82,83,84,85,88,89,32,33,34,35,36,37,38,39,43,44,45,47,48,50,51,52,53,56,57,58,59,60,61,62,63,65,66,67,68,69,70,72,73,74,75,84,89,32,33,34,35,36,37,38,39,42,43,44,45,46,47,48,50,51,52,53,54,55,56,57,58,59,60,61,62,63,65,66,67,68,69,70,71,72,73,74,75,76,77,83,84,89,33,34,35,36,37,38,39,40,41,42,43,44,45,46,47,48,49,50,51,52,53,54,55,56,57,58,59,60,61,62,63,64,65,66,67,68,69,70,71,72,74,75,78,79,80,82,83,84,85,88,89,34,35,36,37,38,39,40,41,42,43,44,45,46,47,49,50,51,52,53,54,55,56,57,58,59,60,61,62,63,64,65,66,67,68,69,70,71,72,73,74,75,76,77,78,79,80,81,82,83,84,85,86,87,88,90,91,35,36,37,38,39,40,41,42,43,44,45,46,47,48,49,50,51,52,53,54,55,56,57,58,59,60,61,62,64,65,66,67,68,69,70,71,72,73,74,75,76,77,78,79,80,81,82,83,84,85,86,87,88,90,91,36,37,38,39,40,41,42,43,44,45,46,47,48,49,50,51,52,53,54,55,56,57,58,59,60,61,62,63,64,65,66,67,68,69,70,71,72,73,74,75,76,77,78,79,81,83,84,85,86,87,89,90,37,38,39,40,41,42,43,44,45,46,47,48,49,52,53,54,55,56,58,59,60,61,62,63,64,65,67,68,69,72,73,75,76,77,81,83,85,87,89,38,39,40,41,42,43,44,45,46,47,48,49,50,51,52,53,54,55,56,57,58,61,62,63,64,65,66,67,68,69,70,71,72,73,74,75,76,77,78,79,80,81,82,83,85,86,87,89,90,39,40,41,42,43,44,45,46,47,48,49,50,51,52,53,54,55,56,57,58,61,62,63,64,65,66,67,68,69,70,71,72,73,74,75,76,77,78,79,80,81,82,83,85,86,87,89,90,40,41,42,43,44,45,46,47,48,49,50,51,52,53,54,55,56,57,58,59,60,61,62,64,65,66,67,68,69,70,71,72,73,74,75,76,77,78,79,80,81,82,83,84,85,86,87,88,90,91,42,43,44,45,46,47,48,50,51,52,53,54,55,56,57,58,59,60,61,62,63,65,66,67,68,69,70,71,72,73,74,75,76,77,83,84,85,87,89,42,43,44,45,46,47,48,50,51,52,53,54,55,56,57,58,59,60,61,62,63,65,66,67,68,69,70,71,72,73,74,75,76,77,83,84,85,87,89,90,43,44,45,47,48,49,50,51,52,53,56,57,58,59,60,61,62,63,64,65,66,67,68,69,70,72,73,74,75,78,79,80,82,83,84,85,88,89,44,45,46,47,48,49,50,51,52,53,54,55,56,57,58,59,60,61,63,64,65,66,67,68,69,70,71,73,74,75,76,77,78,79,80,81,83,84,85,86,87,89,90,45,46,47,48,49,50,51,52,53,54,55,56,57,58,59,60,61,62,63,64,65,66,67,68,69,70,71,72,74,75,78,79,80,82,83,84,85,88,89,46,47,48,50,51,52,53,54,55,56,57,58,59,60,61,62,63,64,65,66,67,68,69,70,72,73,74,75,76,77,78,81,83,84,85,86,87,89,47,48,49,50,51,52,53,54,56,57,58,59,60,61,62,63,64,65,66,67,68,69,70,71,72,73,74,75,78,79,80,82,83,84,85,88,89,48,49,50,51,52,53,54,55,56,57,58,59,60,61,62,63,64,65,66,68,69,70,71,72,73,74,75,76,77,78,79,80,81,82,83,84,85,86,87,88,90,91,49,50,51,52,53,54,55,56,57,58,59,60,61,62,63,64,65,66,67,68,69,70,71,72,73,74,75,76,77,78,79,80,81,82,83,84,85,86,87,88,90,91,50,51,52,53,54,55,56,57,58,59,60,61,62,63,64,65,66,67,68,69,70,71,72,73,74,75,76,77,78,81,83,84,85,86,87,89,90,52,53,54,55,56,58,59,60,61,62,63,64,65,67,68,69,71,72,73,75,76,77,81,83,85,87,89,90,52,53,54,55,56,58,59,60,61,62,63,64,65,67,68,69,71,72,73,74,75,76,77,81,83,85,87,89,90,53,54,55,56,57,58,59,60,61,62,63,64,65,66,67,68,69,70,71,72,73,74,75,76,77,78,79,81,83,84,85,86,87,89,90,54,55,56,57,58,59,60,61,62,63,64,65,66,67,68,69,70,71,72,73,74,75,76,77,78,79,80,81,82,83,84,85,87,88,89,90,55,56,57,58,59,60,61,62,63,64,65,66,67,68,69,70,72,73,74,75,76,77,78,79,80,81,82,83,84,85,86,87,88,89,91,56,57,58,59,60,61,62,63,64,65,66,67,68,69,70,71,72,73,74,75,78,79,80,82,83,84,85,88,89,57,58,59,61,62,63,64,65,66,67,68,69,70,71,72,73,74,75,76,77,78,79,80,81,82,83,85,86,87,89,90,58,59,60,61,62,63,64,65,66,67,68,69,70,71,72,73,74,75,76,77,78,79,80,81,82,83,84,85,87,88,89,90,59,60,61,62,63,65,66,68,69,70,71,72,73,74,75,76,78,79,80,82,83,84,85,88,61,62,63,64,65,66,67,68,69,70,71,72,73,74,75,76,77,78,79,80,81,82,83,85,86,87,89,90,61,62,63,64,65,66,67,68,69,70,71,72,73,74,75,76,77,78,79,80,81,82,83,85,86,87,89,90,62,63,64,65,66,67,68,69,70,71,72,73,74,75,76,77,78,79,80,81,82,83,84,85,86,87,89,90,63,64,65,66,67,68,69,70,71,72,73,74,75,76,77,78,79,80,81,83,84,85,86,87,89,90,64,65,66,67,68,69,70,71,72,73,74,75,76,77,78,79,80,81,82,83,84,85,86,87,88,90,91,65,66,67,68,69,70,71,72,73,74,75,76,77,78,79,80,82,83,84,85,87,88,89,90,66,67,68,70,71,72,73,74,75,76,77,78,79,80,81,82,83,85,86,87,89,90,67,68,69,70,71,72,73,74,75,76,77,78,79,80,81,82,83,85,86,87,89,90,68,69,70,71,72,73,74,75,76,77,78,79,80,81,82,83,84,85,86,87,88,90,91,70,71,72,73,74,75,76,77,78,79,80,81,82,83,85,86,87,89,90,70,71,72,73,74,75,76,77,78,79,80,81,82,83,85,86,87,89,90,71,72,73,74,75,76,77,81,83,84,85,86,87,89,90,72,73,74,75,76,77,78,79,80,81,82,83,84,85,86,87,88,89,91,73,74,75,76,77,78,79,80,81,82,83,84,85,86,87,88,89,90,74,75,78,79,80,82,83,84,85,88,89,75,76,77,78,79,80,81,83,84,85,86,87,89,90,76,77,78,79,80,82,83,84,85,87,88,89,90,78,79,80,82,83,84,85,88,89,78,79,80,81,82,83,84,85,86,88,89,91,81,83,84,85,86,87,89,90,81,83,84,85,86,87,89,90,81,83,84,85,86,87,89,90,82,83,84,85,87,88,89,90,83,84,85,86,87,89,90,84,86,88,89,91,85,86,87,89,90,86,88,89,91,87,88,89,90,88,89,91,89,90,90,91,91];

USEFUL_RES = [{},
	{1,4,6,7,8,9,10,12,13,14,16,19,20,22,24,26,27,29,30},
	{2,4,5,7,8,12,14,18,19,22,26,27,29},
	{1,2,3,4,5,6,7,8,9,10,11,12,13,14,15,16,17,18,19,20,21,23,24,25,28,29,30},
	{3,4,7,8,19,21,22,26,27},
	{1,2,3,4,5,6,7,8,9,10,11,15,17,18,19,21,22,23,24,25,26,27,28,29},
	{1,4,6,9,10,24},
	{2,3,5,7,8,10,11,12,13,14,15,16,17,18,19,20,21,23,25,28,29,30},
	{1,2,3,4,5,6,7,8,9,10,18,19,21,22,24,26,27,29},
	{1,2,3,4,5,6,7,8,9,10,11,12,13,14,15,16,17,18,19,20,21,22,23,24,25,26,27,28,29,30},
	{1,2,3,4,5,6,7,8,9,10,11,15,17,18,19,21,22,23,24,25,26,27,28,29},
	{1,2,3,4,5,6,7,9,10,11,15,17,18,19,21,23,24,25,28,29},
	{2,3,5,7,8,10,11,12,13,14,15,16,17,18,19,20,21,22,23,25,26,27,28,29,30},
	{1,2,3,5,6,7,8,9,11,12,14,15,17,18,19,21,23,24,25,28,29},
	{1,4,6,7,8,9,10,12,14,19,22,24,26,27,29},
	{1,2,3,4,5,6,7,8,9,10,11,12,14,15,17,18,19,21,22,23,24,25,26,27,28,29},
	{2,3,4,5,7,8,10,12,13,14,15,16,18,19,20,21,22,25,26,27,28,29,30},
	{1,2,4,5,6,7,8,9,10,12,13,14,15,16,18,19,20,22,24,25,26,27,28,29,30},
	{1,2,4,5,6,7,8,9,10,12,13,14,15,16,18,19,20,22,24,25,26,27,28,29,30},
	{3,7,11,17,19,21,23},
	{1,2,3,4,5,6,7,8,9,10,11,12,13,14,15,16,17,18,19,20,21,22,23,24,25,26,27,28,29,30},
	{1,3,4,6,7,8,9,11,17,19,21,22,23,24,26,27},
	{1,3,4,6,7,8,9,10,11,12,13,14,16,17,19,20,21,23,24,29,30},
	{7,8,12,14,19,22,26,27,29},
	{3,7,8,10,11,12,13,14,16,17,19,20,21,23,24,29,30},
	{2,4,5,7,8,12,14,18,19,22,26,27,29},
	{1,2,3,4,5,6,7,8,9,10,11,12,14,15,17,18,19,21,23,24,25,28,29},
	{1,2,3,4,5,6,7,8,9,10,11,12,13,14,16,17,18,19,20,21,22,23,24,26,27,29,30},
	{1,2,3,4,5,6,7,9,10,15,18,19,21,24,25,28,29},
	{1,2,3,4,5,6,7,8,9,10,11,12,13,14,15,16,17,18,19,20,21,22,23,24,25,26,27,28,29,30},
	{2,5,15,18,25,28,29},
	{1,2,3,4,5,6,7,8,9,10,11,12,13,14,15,16,17,18,19,20,21,22,23,24,25,26,27,28,29,30},
	{1,2,3,4,5,6,7,8,9,10,11,12,13,14,15,16,17,18,19,20,21,22,23,24,25,26,27,28,29,30},
	{1,2,3,4,5,6,7,8,9,10,15,18,19,21,22,24,25,26,27,28,29},
	{3,7,19,21},
	{7,22,26,27},
	{4,7,8,22,26,27},
	{1,4,6,9,10,24},
	{2,3,4,5,7,8,10,11,12,13,14,16,17,18,19,20,21,22,23,26,27,29,30},
	{1,4,6,9,10,24},
	{2,3,5,7,8,12,14,15,18,19,21,22,25,26,27,28,29},
	{2,3,4,5,7,8,10,11,12,13,14,15,16,17,18,19,20,21,22,23,25,26,27,28,29,30},
	{2,4,5,7,8,10,12,13,14,15,16,18,19,20,22,25,26,27,28,29,30},
	{2,3,4,5,7,8,10,12,13,14,15,16,18,19,20,21,22,25,26,27,28,29,30},
	{2,3,4,5,7,8,10,12,13,14,15,16,18,19,20,21,22,25,26,27,28,29,30},
	{3,7,8,10,11,12,13,14,16,17,19,20,21,23,29,30},
	{2,5,8,10,12,13,14,15,16,18,19,20,25,28,29,30},
	{2,3,5,7,11,15,17,18,19,21,23,25,28,29},
	{2,4,5,7,8,12,14,15,18,19,22,25,26,27,28,29},
	{4,7,8,22,26,27},
	{1,6,9,24},
	{1,2,3,4,5,6,7,8,9,10,11,12,13,14,15,16,17,18,19,20,21,22,23,24,25,26,27,28,29,30},
	{2,3,4,5,7,8,10,12,13,14,16,18,19,20,21,22,26,27,29,30},
	{1,4,6,7,8,9,10,22,24,26,27},
	{1,2,3,4,5,6,7,8,9,10,11,15,17,18,19,21,22,23,24,25,26,27,28,29},
	{1,6,9,24},
	{1,2,3,4,5,6,7,8,9,10,11,12,13,14,15,16,17,18,19,20,21,22,23,24,25,26,27,28,29,30},
	{1,2,3,4,5,6,7,8,9,10,11,12,13,14,16,17,18,19,20,21,22,23,24,26,27,29,30},
	{1,3,4,6,7,8,9,10,11,12,13,14,16,17,19,20,21,23,24,29,30},
	{1,2,3,5,6,7,9,18,19,21,24,29},
	{1,2,4,5,6,7,8,9,10,12,14,15,18,19,22,24,25,26,27,28,29},
	{2,3,5,7,8,11,12,14,15,17,18,19,21,23,24,25,28,29},
	{2,3,5,7,8,10,11,12,13,14,16,17,18,19,20,21,22,23,26,27,29,30},
	{1,6,9,24},
	{1,2,3,4,5,6,7,8,9,10,11,12,14,15,17,18,19,21,23,24,25,28,29},
	{2,3,4,5,7,8,11,12,14,17,18,19,21,22,23,26,27,29},
	{1,2,3,4,5,6,7,8,9,10,11,12,13,14,15,16,17,18,19,20,21,22,23,24,25,26,27,28,29,30},
	{1,2,4,5,6,8,9,10,12,13,14,15,16,18,19,20,24,25,28,29,30},
	{1,2,3,5,6,7,9,11,15,17,18,19,21,23,24,25,28,29},
	{2,5,15,18,25,28,29},
	{2,4,5,7,8,18,22,26,27,29},
	{1,2,4,5,6,8,9,10,12,13,14,15,16,18,19,20,24,25,28,29,30},
	{1,2,3,4,5,6,7,8,9,10,11,12,13,14,16,17,18,19,20,21,22,23,24,26,27,29,30},
	{1,2,4,5,6,7,8,9,10,12,14,15,18,19,22,24,25,26,27,28,29},
	{2,3,4,5,7,8,11,17,18,19,21,22,23,26,27,29},
	{1,2,3,4,5,6,7,8,9,10,11,12,13,14,15,16,17,18,19,20,21,22,23,24,25,26,27,28,29,30},
	{1,2,3,4,5,6,7,8,9,10,11,12,13,14,15,16,17,18,19,20,21,22,23,24,25,26,27,28,29,30},
	{1,2,3,4,5,6,7,8,9,10,11,12,13,14,15,16,17,18,19,20,21,22,23,24,25,26,27,28,29,30},
	{1,2,3,4,5,6,7,8,9,10,11,12,13,14,16,17,18,19,20,21,22,23,24,26,27,29,30},
	{1,6,9,24},
	{1,2,3,4,5,6,7,8,9,10,12,14,15,18,19,21,22,24,25,26,27,28,29},
	{1,3,4,6,7,8,9,19,21,22,24,26,27},
	{1,4,6,7,8,9,10,12,13,14,16,19,20,22,24,26,27,29,30},
	{1,2,3,4,5,6,7,8,9,10,11,17,18,19,21,22,23,24,26,27,29},
	{1,4,6,7,8,9,10,22,24,26,27},
	{1,2,3,4,5,6,7,8,9,10,11,12,13,14,15,16,17,18,19,20,21,22,23,24,25,26,27,28,29,30},
	{2,5,7,8,12,14,15,18,19,22,25,26,27,28,29},
	{3,4,7,8,11,12,14,17,19,21,22,23,26,27,29},
	{1,2,5,6,9,15,18,24,25,28,29},
	{1,4,6,9,10,24},
	{2,3,5,7,18,19,21,29},
	{}];

POTENTIAL_ACT = [{2,4,6,7,9,10,11,12,14,15,16,18,19,21,22,23,27,28,29,30,32,33,34,38,40,51,52,54,55,56,57,58,59,60,61,64,65,67,68,69,72,73,74,76,77,78,79,80,81,82,83,84,85,86,89,90},
	{3,4,6,8,9,10,11,12,13,14,16,17,18,19,21,26,27,28,29,30,31,32,33,34,39,41,42,43,44,45,47,48,49,52,53,55,57,58,60,61,62,63,65,66,67,68,69,70,71,72,73,74,75,76,77,78,79,81,84,86,87,89,91},
	{4,5,6,8,9,10,11,12,13,14,16,17,20,21,22,23,25,27,28,29,30,32,33,34,35,39,41,42,44,45,46,48,52,53,55,57,58,59,60,62,63,65,66,67,69,73,75,76,77,78,79,81,82,84,86,88,91},
	{2,3,4,5,6,7,9,10,11,12,15,16,17,18,19,21,22,23,26,27,28,29,30,32,33,34,37,38,39,40,42,43,44,45,49,50,52,53,54,55,57,58,59,61,65,66,67,68,71,72,73,74,75,76,77,78,79,81,82,83,84,85,86,88,90},
	{3,4,6,8,9,10,11,12,13,14,16,17,18,19,21,26,27,28,29,30,31,32,33,34,39,41,42,43,44,45,47,48,49,52,53,55,57,58,60,61,62,63,65,66,67,68,69,70,71,72,73,74,75,76,77,78,79,81,84,86,87,89,91},
	{2,4,6,7,9,10,11,12,14,15,16,18,19,21,22,23,27,28,29,30,32,33,34,38,40,51,52,54,55,56,57,58,59,60,61,64,65,67,68,69,72,73,74,76,77,78,79,80,81,82,83,84,85,86,89,90},
	{2,3,4,5,6,8,9,10,11,12,13,14,15,16,17,18,19,20,21,22,23,24,25,26,27,28,29,30,32,33,34,35,36,37,39,41,42,43,44,45,46,48,49,50,52,53,54,55,57,58,59,60,61,62,63,65,66,67,69,71,73,74,75,76,77,78,79,81,82,83,84,85,86,87,88,91},
	{2,3,4,5,6,8,9,10,11,13,14,15,16,17,18,19,21,22,23,24,25,26,27,28,30,32,33,34,37,39,41,42,43,44,45,46,47,49,50,52,53,54,55,57,58,59,61,62,63,65,66,67,68,71,72,73,74,75,76,77,78,79,81,82,83,84,85,86,87,88},
	{2,4,6,7,9,10,11,12,14,15,16,18,19,21,22,23,27,28,29,30,32,33,34,38,40,51,52,54,55,56,57,58,59,60,61,64,65,67,68,69,72,73,74,76,77,78,79,80,81,82,83,84,85,86,89,90},
	{2,4,6,7,8,9,10,11,12,13,15,16,17,18,19,21,23,25,27,28,29,30,32,33,34,38,39,40,42,43,44,45,46,47,52,53,54,55,57,58,59,61,63,65,67,68,72,73,74,76,77,78,79,81,83,84,85,86,90},
	{4,6,8,10,11,12,13,14,16,20,21,22,23,25,27,28,30,32,33,39,42,46,48,52,55,57,58,59,62,63,65,66,67,69,73,75,76,77,78,79,84,86,88},
	{2,3,4,8,10,13,14,15,16,17,18,19,21,23,24,25,26,27,28,30,32,33,39,41,42,43,44,45,46,47,49,52,53,57,58,59,61,62,63,65,66,67,68,72,73,74,76,77,78,79,81,83,86,87,88},
	{2,4,8,10,13,17,18,19,21,23,25,28,30,32,33,39,42,43,44,45,46,47,52,53,57,58,59,63,67,68,72,73,76,77,78,79,83,86},
	{2,3,4,8,10,13,14,15,16,17,18,19,21,23,24,25,26,27,28,30,32,33,39,41,42,43,44,45,46,47,49,52,53,57,58,59,61,62,63,65,66,67,68,72,73,74,76,77,78,79,81,83,86,87,88},
	{4,6,8,10,11,12,13,14,16,17,18,19,21,27,29,30,31,32,33,34,41,42,43,44,45,47,48,49,52,55,57,61,62,65,67,68,69,70,72,74,76,77,78,81,86,87,89},
	{2,4,8,10,13,17,18,19,21,23,25,28,30,32,33,39,42,43,44,45,46,47,52,53,57,58,59,63,67,68,72,73,76,77,78,79,83,86},
	{4,6,8,10,11,12,13,14,16,20,21,22,23,25,27,28,30,32,33,39,42,46,48,52,55,57,58,59,62,63,65,66,67,69,73,75,76,77,78,79,84,86,88},
	{3,4,6,8,9,10,11,12,13,14,16,17,18,19,21,26,27,28,29,30,31,32,33,34,39,41,42,43,44,45,47,48,49,52,53,55,57,58,60,61,62,63,65,66,67,68,69,70,71,72,73,74,75,76,77,78,79,81,84,86,87,89,91},
	{2,3,4,5,6,8,9,10,11,12,13,14,15,16,17,18,19,20,21,22,23,24,25,26,27,28,29,30,32,33,34,35,39,41,42,43,44,45,46,47,48,49,52,53,55,57,58,59,60,61,62,63,65,66,67,68,69,72,73,74,75,76,77,78,79,81,82,83,84,86,87,88,91},
	{2,4,8,10,13,17,18,19,21,23,25,28,30,32,33,39,42,43,44,45,46,47,52,53,57,58,59,63,67,68,72,73,76,77,78,79,83,86},
	{4,5,6,8,9,10,11,12,13,14,16,17,20,21,22,23,25,27,28,29,30,32,33,34,35,39,41,42,44,45,46,48,52,53,55,57,58,59,60,62,63,65,66,67,69,73,75,76,77,78,79,81,82,84,86,88,91},
	{2,3,5,6,9,10,11,13,15,16,17,18,19,21,22,24,26,28,30,32,33,34,36,37,39,41,42,43,44,45,49,50,52,53,54,55,57,58,61,63,66,67,71,73,74,75,76,77,78,79,81,82,83,84,85,86,87,88},
	{4,6,8,10,11,12,13,14,16,20,21,22,23,25,27,28,30,32,33,39,42,46,48,52,55,57,58,59,62,63,65,66,67,69,73,75,76,77,78,79,84,86,88},
	{2,4,6,7,9,10,11,12,14,15,16,18,19,21,22,23,25,27,28,29,30,32,33,34,38,40,51,52,54,55,56,57,58,59,60,61,62,64,65,67,68,69,72,73,74,76,77,78,79,80,81,82,83,84,85,86,89,90},
	{4,6,8,10,11,12,13,14,16,17,18,19,21,27,29,30,31,32,33,34,41,42,43,44,45,47,48,49,52,55,57,61,62,65,67,68,69,70,72,74,76,77,78,81,86,87,89},
	{2,3,5,6,9,10,11,13,15,16,17,18,19,21,22,24,26,28,30,32,33,34,36,37,39,41,42,43,44,45,49,50,52,53,54,55,57,58,61,63,66,67,71,73,74,75,76,77,78,79,81,82,83,84,85,86,87,88},
	{2,3,5,6,9,10,11,13,15,16,17,18,19,21,22,24,26,28,30,32,33,34,36,37,39,41,42,43,44,45,49,50,52,53,54,55,57,58,61,63,66,67,71,73,74,75,76,77,78,79,81,82,83,84,85,86,87,88},
	{4,6,8,10,11,12,13,14,16,17,18,19,21,27,29,30,31,32,33,34,41,42,43,44,45,47,48,49,52,55,57,61,62,65,67,68,69,70,72,74,76,77,78,81,86,87,89},
	{2,3,4,6,8,9,10,11,12,13,14,15,16,17,18,19,21,23,24,25,26,27,28,29,30,31,32,33,34,39,41,42,43,44,45,46,47,48,49,52,53,55,57,58,59,60,61,62,63,65,66,67,68,69,70,71,72,73,74,75,76,77,78,79,81,83,84,86,87,88,89,91},
	{2,4,8,10,13,17,18,19,21,23,25,28,30,32,33,39,42,43,44,45,46,47,52,53,57,58,59,63,67,68,72,73,76,77,78,79,83,86}];
